(declare-const fee_bl Real)
(declare-const p3 Real)
(declare-const income Real)
(declare-const p62 Real)
(declare-const p0 Real)
(assert (= p0 (* 0.00 (ite (> income 3560) 3560 income))))
(assert (= p3 (ite (> income 3560) (* 0.03 (- (ite (> income 17830) 17830 income) 3560)) 0)))
(assert (= p62 (ite (> income 17830) (* 0.062 (- income 17830)) 0)))
(assert (= fee_bl (+ (+ p0 p3) p62)))